20	5
0	5	5	3	2	4	1
1	3	19	13	17
2	0
3	4	20	19	17	16
4	2	12	8
5	2	9	8
6	2	14	19
7	2	19	13
8	2	11	17
9	1	15
10	1	9
11	2	20	6
12	1	10
13	2	20	14
14	2	18	16
15	1	11
16	1	21
17	1	21
18	1	21
19	1	21
20	1	21
21	0
0	0	0	0	0	0	0
1	1	5	4	5	3	5
2	7	4	4	5	5	2
3	7	2	4	3	4	5
4	3	4	3	4	1	4
5	9	1	4	4	2	3
6	3	3	3	1	3	4
7	2	1	3	4	5	1
8	9	1	3	3	5	3
9	4	4	3	5	4	1
10	9	1	2	2	2	2
11	1	1	3	4	3	2
12	7	5	2	5	5	5
13	5	5	3	2	3	2
14	1	1	4	1	5	3
15	9	5	3	4	2	1
16	1	2	5	4	5	5
17	3	1	5	3	1	2
18	9	2	5	5	4	2
19	9	1	1	1	4	5
20	1	5	4	4	4	3
21	0	0	0	0	0	0
10	10	12	9	10
